$rem
JOBTYPE                   FORCE
METHOD                    B97-D3
DFT_D                     D3_BJ
BASIS                     def2-mSVP
UNRESTRICTED              TRUE
SCF_ALGORITHM             RCA_DIIS
MAX_SCF_CYCLES            50
SCF_CONVERGENCE           6
SYM_IGNORE                TRUE
SYMMETRY                  FALSE
WAVEFUNCTION_ANALYSIS     FALSE
$end

$molecule
0 1
