$rem
JOBTYPE                   OPT
METHOD                    B97-D3
DFT_D                     D3_BJ
BASIS                     def2-mSVP
UNRESTRICTED              TRUE
SCF_ALGORITHM             DIIS
MAX_SCF_CYCLES            150
SCF_CONVERGENCE           8
SYM_IGNORE                TRUE
SYMMETRY                  FALSE
GEOM_OPT_MAX_CYCLES       300
GEOM_OPT_TOL_GRADIENT     15
GEOM_OPT_TOL_DISPLACEMENT 120
GEOM_OPT_TOL_ENERGY       10
WAVEFUNCTION_ANALYSIS     FALSE
$end

$molecule
$end
